0	123	33	159	122	189	159	134	100	104	40	
190	0	35	100	177	39	113	85	185	39	89	
78	105	0	56	121	138	173	66	90	102	153	
156	183	165	0	82	163	114	141	104	147	189	
131	59	75	171	0	192	137	77	152	171	120	
119	136	148	181	112	0	148	50	176	179	150	
90	96	113	111	37	43	0	126	114	188	111	
115	133	53	183	159	182	167	0	112	31	111	
135	145	156	65	155	197	57	196	0	83	44	
56	49	43	93	195	92	157	170	83	0	175	
193	125	81	185	51	160	45	48	163	151	0	
